
  22    0


   0  12 2 3 4 6 7 8 9 10 18 19 20 21 
   5   2 16 5 
   6   3 17 16 11 
   7   3 15 14 12 
   5   2 14 11 
   5   2 15 13 
   5   2 13 11 
   4   1 13 
   3   1 12 
   7   1 12 
   4   1 22
   8   1 22
   1   1 22
   2   1 22
   3   1 22
   7   1 22
   3   1 22
   2   1 22
   3   1 22
   1   1 22
   2   1 22
   0   0 
